p max 50 644
a 1 2 1
a 1 3 1
a 1 4 1
a 1 5 1
a 1 6 1
a 1 7 1
a 1 8 1
a 1 9 1
a 1 10 1
a 1 11 1
a 1 12 1
a 1 13 1
a 1 14 1
a 1 15 1
a 2 1 1
a 2 3 1
a 2 4 1
a 2 5 1
a 2 6 1
a 2 7 1
a 2 8 1
a 2 9 1
a 2 10 1
a 2 11 1
a 2 12 1
a 2 13 1
a 2 14 1
a 2 15 1
a 3 1 1
a 3 2 1
a 3 4 1
a 3 5 1
a 3 6 1
a 3 7 1
a 3 8 1
a 3 9 1
a 3 10 1
a 3 11 1
a 3 12 1
a 3 13 1
a 3 14 1
a 3 15 1
a 4 1 1
a 4 2 1
a 4 3 1
a 4 5 1
a 4 6 1
a 4 7 1
a 4 8 1
a 4 9 1
a 4 10 1
a 4 11 1
a 4 12 1
a 4 13 1
a 4 14 1
a 4 15 1
a 5 1 1
a 5 2 1
a 5 3 1
a 5 4 1
a 5 6 1
a 5 7 1
a 5 8 1
a 5 9 1
a 5 10 1
a 5 11 1
a 5 12 1
a 5 13 1
a 5 14 1
a 5 15 1
a 6 1 1
a 6 2 1
a 6 3 1
a 6 4 1
a 6 5 1
a 6 7 1
a 6 8 1
a 6 9 1
a 6 10 1
a 6 11 1
a 6 12 1
a 6 13 1
a 6 14 1
a 6 15 1
a 7 1 1
a 7 2 1
a 7 3 1
a 7 4 1
a 7 5 1
a 7 6 1
a 7 8 1
a 7 9 1
a 7 10 1
a 7 11 1
a 7 12 1
a 7 13 1
a 7 14 1
a 7 15 1
a 8 1 1
a 8 2 1
a 8 3 1
a 8 4 1
a 8 5 1
a 8 6 1
a 8 7 1
a 8 9 1
a 8 10 1
a 8 11 1
a 8 12 1
a 8 13 1
a 8 14 1
a 8 15 1
a 9 1 1
a 9 2 1
a 9 3 1
a 9 4 1
a 9 5 1
a 9 6 1
a 9 7 1
a 9 8 1
a 9 10 1
a 9 11 1
a 9 12 1
a 9 13 1
a 9 14 1
a 9 15 1
a 10 1 1
a 10 2 1
a 10 3 1
a 10 4 1
a 10 5 1
a 10 6 1
a 10 7 1
a 10 8 1
a 10 9 1
a 10 11 1
a 10 12 1
a 10 13 1
a 10 14 1
a 10 15 1
a 11 1 1
a 11 2 1
a 11 3 1
a 11 4 1
a 11 5 1
a 11 6 1
a 11 7 1
a 11 8 1
a 11 9 1
a 11 10 1
a 11 12 1
a 11 13 1
a 11 14 1
a 11 15 1
a 12 1 1
a 12 2 1
a 12 3 1
a 12 4 1
a 12 5 1
a 12 6 1
a 12 7 1
a 12 8 1
a 12 9 1
a 12 10 1
a 12 11 1
a 12 13 1
a 12 14 1
a 12 15 1
a 13 1 1
a 13 2 1
a 13 3 1
a 13 4 1
a 13 5 1
a 13 6 1
a 13 7 1
a 13 8 1
a 13 9 1
a 13 10 1
a 13 11 1
a 13 12 1
a 13 14 1
a 13 15 1
a 14 1 1
a 14 2 1
a 14 3 1
a 14 4 1
a 14 5 1
a 14 6 1
a 14 7 1
a 14 8 1
a 14 9 1
a 14 10 1
a 14 11 1
a 14 12 1
a 14 13 1
a 14 15 1
a 15 1 1
a 15 2 1
a 15 3 1
a 15 4 1
a 15 5 1
a 15 6 1
a 15 7 1
a 15 8 1
a 15 9 1
a 15 10 1
a 15 11 1
a 15 12 1
a 15 13 1
a 15 14 1
a 15 16 1
a 16 15 1
a 16 17 1
a 16 18 1
a 16 19 1
a 16 20 1
a 16 21 1
a 16 22 1
a 16 23 1
a 16 24 1
a 16 25 1
a 16 26 1
a 16 27 1
a 16 28 1
a 16 29 1
a 16 30 1
a 17 16 1
a 17 18 1
a 17 19 1
a 17 20 1
a 17 21 1
a 17 22 1
a 17 23 1
a 17 24 1
a 17 25 1
a 17 26 1
a 17 27 1
a 17 28 1
a 17 29 1
a 17 30 1
a 18 16 1
a 18 17 1
a 18 19 1
a 18 20 1
a 18 21 1
a 18 22 1
a 18 23 1
a 18 24 1
a 18 25 1
a 18 26 1
a 18 27 1
a 18 28 1
a 18 29 1
a 18 30 1
a 19 16 1
a 19 17 1
a 19 18 1
a 19 20 1
a 19 21 1
a 19 22 1
a 19 23 1
a 19 24 1
a 19 25 1
a 19 26 1
a 19 27 1
a 19 28 1
a 19 29 1
a 19 30 1
a 20 16 1
a 20 17 1
a 20 18 1
a 20 19 1
a 20 21 1
a 20 22 1
a 20 23 1
a 20 24 1
a 20 25 1
a 20 26 1
a 20 27 1
a 20 28 1
a 20 29 1
a 20 30 1
a 21 16 1
a 21 17 1
a 21 18 1
a 21 19 1
a 21 20 1
a 21 22 1
a 21 23 1
a 21 24 1
a 21 25 1
a 21 26 1
a 21 27 1
a 21 28 1
a 21 29 1
a 21 30 1
a 22 16 1
a 22 17 1
a 22 18 1
a 22 19 1
a 22 20 1
a 22 21 1
a 22 23 1
a 22 24 1
a 22 25 1
a 22 26 1
a 22 27 1
a 22 28 1
a 22 29 1
a 22 30 1
a 23 16 1
a 23 17 1
a 23 18 1
a 23 19 1
a 23 20 1
a 23 21 1
a 23 22 1
a 23 24 1
a 23 25 1
a 23 26 1
a 23 27 1
a 23 28 1
a 23 29 1
a 23 30 1
a 24 16 1
a 24 17 1
a 24 18 1
a 24 19 1
a 24 20 1
a 24 21 1
a 24 22 1
a 24 23 1
a 24 25 1
a 24 26 1
a 24 27 1
a 24 28 1
a 24 29 1
a 24 30 1
a 25 16 1
a 25 17 1
a 25 18 1
a 25 19 1
a 25 20 1
a 25 21 1
a 25 22 1
a 25 23 1
a 25 24 1
a 25 26 1
a 25 27 1
a 25 28 1
a 25 29 1
a 25 30 1
a 26 16 1
a 26 17 1
a 26 18 1
a 26 19 1
a 26 20 1
a 26 21 1
a 26 22 1
a 26 23 1
a 26 24 1
a 26 25 1
a 26 27 1
a 26 28 1
a 26 29 1
a 26 30 1
a 27 16 1
a 27 17 1
a 27 18 1
a 27 19 1
a 27 20 1
a 27 21 1
a 27 22 1
a 27 23 1
a 27 24 1
a 27 25 1
a 27 26 1
a 27 28 1
a 27 29 1
a 27 30 1
a 28 16 1
a 28 17 1
a 28 18 1
a 28 19 1
a 28 20 1
a 28 21 1
a 28 22 1
a 28 23 1
a 28 24 1
a 28 25 1
a 28 26 1
a 28 27 1
a 28 29 1
a 28 30 1
a 29 16 1
a 29 17 1
a 29 18 1
a 29 19 1
a 29 20 1
a 29 21 1
a 29 22 1
a 29 23 1
a 29 24 1
a 29 25 1
a 29 26 1
a 29 27 1
a 29 28 1
a 29 30 1
a 30 16 1
a 30 17 1
a 30 18 1
a 30 19 1
a 30 20 1
a 30 21 1
a 30 22 1
a 30 23 1
a 30 24 1
a 30 25 1
a 30 26 1
a 30 27 1
a 30 28 1
a 30 29 1
a 30 31 1
a 31 30 1
a 31 32 1
a 31 33 1
a 31 34 1
a 31 35 1
a 31 36 1
a 31 37 1
a 31 38 1
a 31 39 1
a 31 40 1
a 31 41 1
a 31 42 1
a 31 43 1
a 31 44 1
a 31 45 1
a 32 31 1
a 32 33 1
a 32 34 1
a 32 35 1
a 32 36 1
a 32 37 1
a 32 38 1
a 32 39 1
a 32 40 1
a 32 41 1
a 32 42 1
a 32 43 1
a 32 44 1
a 32 45 1
a 33 31 1
a 33 32 1
a 33 34 1
a 33 35 1
a 33 36 1
a 33 37 1
a 33 38 1
a 33 39 1
a 33 40 1
a 33 41 1
a 33 42 1
a 33 43 1
a 33 44 1
a 33 45 1
a 34 31 1
a 34 32 1
a 34 33 1
a 34 35 1
a 34 36 1
a 34 37 1
a 34 38 1
a 34 39 1
a 34 40 1
a 34 41 1
a 34 42 1
a 34 43 1
a 34 44 1
a 34 45 1
a 35 31 1
a 35 32 1
a 35 33 1
a 35 34 1
a 35 36 1
a 35 37 1
a 35 38 1
a 35 39 1
a 35 40 1
a 35 41 1
a 35 42 1
a 35 43 1
a 35 44 1
a 35 45 1
a 36 31 1
a 36 32 1
a 36 33 1
a 36 34 1
a 36 35 1
a 36 37 1
a 36 38 1
a 36 39 1
a 36 40 1
a 36 41 1
a 36 42 1
a 36 43 1
a 36 44 1
a 36 45 1
a 37 31 1
a 37 32 1
a 37 33 1
a 37 34 1
a 37 35 1
a 37 36 1
a 37 38 1
a 37 39 1
a 37 40 1
a 37 41 1
a 37 42 1
a 37 43 1
a 37 44 1
a 37 45 1
a 38 31 1
a 38 32 1
a 38 33 1
a 38 34 1
a 38 35 1
a 38 36 1
a 38 37 1
a 38 39 1
a 38 40 1
a 38 41 1
a 38 42 1
a 38 43 1
a 38 44 1
a 38 45 1
a 39 31 1
a 39 32 1
a 39 33 1
a 39 34 1
a 39 35 1
a 39 36 1
a 39 37 1
a 39 38 1
a 39 40 1
a 39 41 1
a 39 42 1
a 39 43 1
a 39 44 1
a 39 45 1
a 40 31 1
a 40 32 1
a 40 33 1
a 40 34 1
a 40 35 1
a 40 36 1
a 40 37 1
a 40 38 1
a 40 39 1
a 40 41 1
a 40 42 1
a 40 43 1
a 40 44 1
a 40 45 1
a 41 31 1
a 41 32 1
a 41 33 1
a 41 34 1
a 41 35 1
a 41 36 1
a 41 37 1
a 41 38 1
a 41 39 1
a 41 40 1
a 41 42 1
a 41 43 1
a 41 44 1
a 41 45 1
a 42 31 1
a 42 32 1
a 42 33 1
a 42 34 1
a 42 35 1
a 42 36 1
a 42 37 1
a 42 38 1
a 42 39 1
a 42 40 1
a 42 41 1
a 42 43 1
a 42 44 1
a 42 45 1
a 43 31 1
a 43 32 1
a 43 33 1
a 43 34 1
a 43 35 1
a 43 36 1
a 43 37 1
a 43 38 1
a 43 39 1
a 43 40 1
a 43 41 1
a 43 42 1
a 43 44 1
a 43 45 1
a 44 31 1
a 44 32 1
a 44 33 1
a 44 34 1
a 44 35 1
a 44 36 1
a 44 37 1
a 44 38 1
a 44 39 1
a 44 40 1
a 44 41 1
a 44 42 1
a 44 43 1
a 44 45 1
a 45 31 1
a 45 32 1
a 45 33 1
a 45 34 1
a 45 35 1
a 45 36 1
a 45 37 1
a 45 38 1
a 45 39 1
a 45 40 1
a 45 41 1
a 45 42 1
a 45 43 1
a 45 44 1
a 45 46 1
a 46 45 1
a 46 47 1
a 47 46 1
a 47 48 1
a 48 47 1
a 48 49 1
a 49 48 1
a 49 50 1
a 50 49 1
